c ind 101 103 105 107 109 111 113 115 117 119 0
c ind 121 123 125 127 131 148 151 154 157 160 0
c ind 177 179 181 183 185 187 189 191 193 195 0
c ind 197 199 201 203 205 207 225 227 229 231 0
c ind 233 235 237 239 24 241 243 245 247 249 0
c ind 25 251 253 255 27 274 276 278 280 282 0
c ind 284 286 288 29 290 292 294 296 298 300 0
c ind 302 304 31 312 315 318 33 35 367 369 0
c ind 37 371 373 375 377 379 381 383 385 387 0
c ind 389 39 391 393 395 397 41 416 418 420 0
c ind 422 424 426 428 43 430 432 434 436 438 0
c ind 440 442 444 446 45 47 49 501 503 505 0
c ind 507 509 51 511 513 515 517 519 521 523 0
c ind 525 527 529 53 531 55 550 552 554 556 0
c ind 558 560 562 564 566 568 570 572 574 576 0
c ind 578 58 580 6 62 7 79 97 99 0
p cnf 618 1661
-1 2 0
-1 484 0
-10 11 0
-10 50 0
-100 -101 29 0
-100 -29 101 0
-102 -103 31 0
-102 -31 103 0
-104 -105 33 0
-104 -33 105 0
-106 -107 35 0
-106 -35 107 0
-108 -109 37 0
-108 -37 109 0
-11 12 0
-11 48 0
-110 -111 39 0
-110 -39 111 0
-112 -113 41 0
-112 -41 113 0
-114 -115 43 0
-114 -43 115 0
-116 -117 45 0
-116 -45 117 0
-118 -119 47 0
-118 -47 119 0
-12 13 0
-12 46 0
-120 -121 49 0
-120 -49 121 0
-122 -123 51 0
-122 -51 123 0
-124 -125 53 0
-124 -53 125 0
-126 -127 55 0
-126 -55 127 0
-128 -129 81 0
-128 129 149 0
-129 130 0
-129 132 0
-13 14 0
-13 44 0
-130 -131 7 0
-130 -7 131 0
-132 133 0
-132 80 0
-133 134 0
-133 80 0
-134 135 0
-134 80 0
-135 136 0
-135 80 0
-136 137 0
-136 80 0
-137 138 0
-137 80 0
-138 139 0
-138 80 0
-139 140 0
-139 80 0
-14 15 0
-14 42 0
-140 141 0
-140 80 0
-141 142 0
-141 80 0
-142 143 0
-142 80 0
-143 144 0
-143 80 0
-144 145 0
-144 80 0
-145 146 0
-145 80 0
-146 147 0
-146 80 0
-147 -148 25 0
-147 -25 148 0
-149 -150 81 0
-149 150 152 0
-15 16 0
-15 40 0
-150 -151 7 0
-150 -7 151 0
-152 -153 81 0
-152 153 155 0
-153 -154 7 0
-153 -7 154 0
-155 -156 81 0
-155 156 158 0
-156 -157 7 0
-156 -7 157 0
-158 -159 161 0
-158 159 81 0
-159 -160 7 0
-159 -7 160 0
-16 17 0
-16 38 0
-161 162 0
-161 206 0
-162 163 0
-162 204 0
-163 164 0
-163 202 0
-164 165 0
-164 200 0
-165 166 0
-165 198 0
-166 167 0
-166 196 0
-167 168 0
-167 194 0
-168 169 0
-168 192 0
-169 170 0
-169 190 0
-17 18 0
-17 36 0
-170 171 0
-170 188 0
-171 172 0
-171 186 0
-172 173 0
-172 184 0
-173 174 0
-173 182 0
-174 175 0
-174 180 0
-175 176 0
-175 178 0
-176 -177 24 0
-176 -24 177 0
-178 -179 27 0
-178 -27 179 0
-18 19 0
-18 34 0
-180 -181 29 0
-180 -29 181 0
-182 -183 31 0
-182 -31 183 0
-184 -185 33 0
-184 -33 185 0
-186 -187 35 0
-186 -35 187 0
-188 -189 37 0
-188 -37 189 0
-19 20 0
-19 32 0
-190 -191 39 0
-190 -39 191 0
-192 -193 41 0
-192 -41 193 0
-194 -195 43 0
-194 -43 195 0
-196 -197 45 0
-196 -45 197 0
-198 -199 47 0
-198 -47 199 0
-2 3 0
-2 350 0
-20 21 0
-20 30 0
-200 -201 49 0
-200 -49 201 0
-202 -203 51 0
-202 -51 203 0
-204 -205 53 0
-204 -53 205 0
-206 -207 55 0
-206 -55 207 0
-208 -5 209 0
-208 5 256 0
-209 210 0
-209 254 0
-21 22 0
-21 28 0
-210 211 0
-210 252 0
-211 212 0
-211 250 0
-212 213 0
-212 248 0
-213 214 0
-213 246 0
-214 215 0
-214 244 0
-215 216 0
-215 242 0
-216 217 0
-216 240 0
-217 218 0
-217 238 0
-218 219 0
-218 236 0
-219 220 0
-219 234 0
-22 23 0
-22 26 0
-220 221 0
-220 232 0
-221 222 0
-221 230 0
-222 223 0
-222 228 0
-223 224 0
-223 226 0
-224 -225 25 0
-224 -25 225 0
-226 -227 25 0
-226 -25 227 0
-228 -229 25 0
-228 -25 229 0
-23 -24 25 0
-23 -25 24 0
-230 -231 25 0
-230 -25 231 0
-232 -233 25 0
-232 -25 233 0
-234 -235 25 0
-234 -25 235 0
-236 -237 25 0
-236 -25 237 0
-238 -239 25 0
-238 -25 239 0
-240 -241 25 0
-240 -25 241 0
-242 -243 25 0
-242 -25 243 0
-244 -245 25 0
-244 -25 245 0
-246 -247 25 0
-246 -25 247 0
-248 -249 25 0
-248 -25 249 0
-25 0
-250 -25 251 0
-250 -251 25 0
-252 -25 253 0
-252 -253 25 0
-254 -25 255 0
-254 -255 25 0
-256 -57 257 0
-256 57 258 0
-257 -60 258 0
-257 60 305 0
-258 259 0
-258 303 0
-259 260 0
-259 301 0
-26 -25 27 0
-26 -27 25 0
-260 261 0
-260 299 0
-261 262 0
-261 297 0
-262 263 0
-262 295 0
-263 264 0
-263 293 0
-264 265 0
-264 291 0
-265 266 0
-265 289 0
-266 267 0
-266 287 0
-267 268 0
-267 285 0
-268 269 0
-268 283 0
-269 270 0
-269 281 0
-270 271 0
-270 279 0
-271 272 0
-271 277 0
-272 273 0
-272 275 0
-273 -225 274 0
-273 -274 225 0
-275 -227 276 0
-275 -276 227 0
-277 -229 278 0
-277 -278 229 0
-279 -231 280 0
-279 -280 231 0
-28 -25 29 0
-28 -29 25 0
-281 -233 282 0
-281 -282 233 0
-283 -235 284 0
-283 -284 235 0
-285 -237 286 0
-285 -286 237 0
-287 -239 288 0
-287 -288 239 0
-289 -241 290 0
-289 -290 241 0
-291 -243 292 0
-291 -292 243 0
-293 -245 294 0
-293 -294 245 0
-295 -247 296 0
-295 -296 247 0
-297 -249 298 0
-297 -298 249 0
-299 -251 300 0
-299 -300 251 0
-3 208 0
-3 4 0
-30 -25 31 0
-30 -31 25 0
-301 -253 302 0
-301 -302 253 0
-303 -255 304 0
-303 -304 255 0
-305 -129 258 0
-305 129 306 0
-306 -150 258 0
-306 150 307 0
-307 -153 258 0
-307 153 308 0
-308 -156 258 0
-308 156 309 0
-309 -159 258 0
-309 159 310 0
-310 -311 258 0
-310 311 313 0
-311 -312 7 0
-311 -7 312 0
-313 -314 258 0
-313 314 316 0
-314 -315 7 0
-314 -7 315 0
-316 -317 319 0
-316 317 258 0
-317 -318 7 0
-317 -7 318 0
-319 320 0
-319 349 0
-32 -25 33 0
-32 -33 25 0
-320 321 0
-320 348 0
-321 322 0
-321 347 0
-322 323 0
-322 346 0
-323 324 0
-323 345 0
-324 325 0
-324 344 0
-325 326 0
-325 343 0
-326 327 0
-326 342 0
-327 328 0
-327 341 0
-328 329 0
-328 340 0
-329 330 0
-329 339 0
-330 331 0
-330 338 0
-331 332 0
-331 337 0
-332 333 0
-332 336 0
-333 334 0
-333 335 0
-334 -177 225 0
-334 -225 177 0
-335 -179 227 0
-335 -227 179 0
-336 -181 229 0
-336 -229 181 0
-337 -183 231 0
-337 -231 183 0
-338 -185 233 0
-338 -233 185 0
-339 -187 235 0
-339 -235 187 0
-34 -25 35 0
-34 -35 25 0
-340 -189 237 0
-340 -237 189 0
-341 -191 239 0
-341 -239 191 0
-342 -193 241 0
-342 -241 193 0
-343 -195 243 0
-343 -243 195 0
-344 -197 245 0
-344 -245 197 0
-345 -199 247 0
-345 -247 199 0
-346 -201 249 0
-346 -249 201 0
-347 -203 251 0
-347 -251 203 0
-348 -205 253 0
-348 -253 205 0
-349 -207 255 0
-349 -255 207 0
-350 -5 351 0
-350 5 398 0
-351 352 0
-351 396 0
-352 353 0
-352 394 0
-353 354 0
-353 392 0
-354 355 0
-354 390 0
-355 356 0
-355 388 0
-356 357 0
-356 386 0
-357 358 0
-357 384 0
-358 359 0
-358 382 0
-359 360 0
-359 380 0
-36 -25 37 0
-36 -37 25 0
-360 361 0
-360 378 0
-361 362 0
-361 376 0
-362 363 0
-362 374 0
-363 364 0
-363 372 0
-364 365 0
-364 370 0
-365 366 0
-365 368 0
-366 -25 367 0
-366 -367 25 0
-368 -25 369 0
-368 -369 25 0
-370 -25 371 0
-370 -371 25 0
-372 -25 373 0
-372 -373 25 0
-374 -25 375 0
-374 -375 25 0
-376 -25 377 0
-376 -377 25 0
-378 -25 379 0
-378 -379 25 0
-38 -25 39 0
-38 -39 25 0
-380 -25 381 0
-380 -381 25 0
-382 -25 383 0
-382 -383 25 0
-384 -25 385 0
-384 -385 25 0
-386 -25 387 0
-386 -387 25 0
-388 -25 389 0
-388 -389 25 0
-390 -25 391 0
-390 -391 25 0
-392 -25 393 0
-392 -393 25 0
-394 -25 395 0
-394 -395 25 0
-396 -25 397 0
-396 -397 25 0
-398 -57 399 0
-398 57 400 0
-399 -60 400 0
-399 60 447 0
-4 -5 8 0
-4 5 56 0
-40 -25 41 0
-40 -41 25 0
-400 401 0
-400 445 0
-401 402 0
-401 443 0
-402 403 0
-402 441 0
-403 404 0
-403 439 0
-404 405 0
-404 437 0
-405 406 0
-405 435 0
-406 407 0
-406 433 0
-407 408 0
-407 431 0
-408 409 0
-408 429 0
-409 410 0
-409 427 0
-410 411 0
-410 425 0
-411 412 0
-411 423 0
-412 413 0
-412 421 0
-413 414 0
-413 419 0
-414 415 0
-414 417 0
-415 -367 416 0
-415 -416 367 0
-417 -369 418 0
-417 -418 369 0
-419 -371 420 0
-419 -420 371 0
-42 -25 43 0
-42 -43 25 0
-421 -373 422 0
-421 -422 373 0
-423 -375 424 0
-423 -424 375 0
-425 -377 426 0
-425 -426 377 0
-427 -379 428 0
-427 -428 379 0
-429 -381 430 0
-429 -430 381 0
-431 -383 432 0
-431 -432 383 0
-433 -385 434 0
-433 -434 385 0
-435 -387 436 0
-435 -436 387 0
-437 -389 438 0
-437 -438 389 0
-439 -391 440 0
-439 -440 391 0
-44 -25 45 0
-44 -45 25 0
-441 -393 442 0
-441 -442 393 0
-443 -395 444 0
-443 -444 395 0
-445 -397 446 0
-445 -446 397 0
-447 -129 400 0
-447 129 448 0
-448 -150 400 0
-448 150 449 0
-449 -153 400 0
-449 153 450 0
-450 -156 400 0
-450 156 451 0
-451 -159 400 0
-451 159 452 0
-452 -311 453 0
-452 311 400 0
-453 454 0
-453 483 0
-454 455 0
-454 482 0
-455 456 0
-455 481 0
-456 457 0
-456 480 0
-457 458 0
-457 479 0
-458 459 0
-458 478 0
-459 460 0
-459 477 0
-46 -25 47 0
-46 -47 25 0
-460 461 0
-460 476 0
-461 462 0
-461 475 0
-462 463 0
-462 474 0
-463 464 0
-463 473 0
-464 465 0
-464 472 0
-465 466 0
-465 471 0
-466 467 0
-466 470 0
-467 468 0
-467 469 0
-468 -177 367 0
-468 -367 177 0
-469 -179 369 0
-469 -369 179 0
-470 -181 371 0
-470 -371 181 0
-471 -183 373 0
-471 -373 183 0
-472 -185 375 0
-472 -375 185 0
-473 -187 377 0
-473 -377 187 0
-474 -189 379 0
-474 -379 189 0
-475 -191 381 0
-475 -381 191 0
-476 -193 383 0
-476 -383 193 0
-477 -195 385 0
-477 -385 195 0
-478 -197 387 0
-478 -387 197 0
-479 -199 389 0
-479 -389 199 0
-48 -25 49 0
-48 -49 25 0
-480 -201 391 0
-480 -391 201 0
-481 -203 393 0
-481 -393 203 0
-482 -205 395 0
-482 -395 205 0
-483 -207 397 0
-483 -397 207 0
-484 -5 485 0
-484 5 532 0
-485 486 0
-485 530 0
-486 487 0
-486 528 0
-487 488 0
-487 526 0
-488 489 0
-488 524 0
-489 490 0
-489 522 0
-490 491 0
-490 520 0
-491 492 0
-491 518 0
-492 493 0
-492 516 0
-493 494 0
-493 514 0
-494 495 0
-494 512 0
-495 496 0
-495 510 0
-496 497 0
-496 508 0
-497 498 0
-497 506 0
-498 499 0
-498 504 0
-499 500 0
-499 502 0
-5 -6 7 0
-5 -7 6 0
-50 -25 51 0
-50 -51 25 0
-500 -25 501 0
-500 -501 25 0
-502 -25 503 0
-502 -503 25 0
-504 -25 505 0
-504 -505 25 0
-506 -25 507 0
-506 -507 25 0
-508 -25 509 0
-508 -509 25 0
-510 -25 511 0
-510 -511 25 0
-512 -25 513 0
-512 -513 25 0
-514 -25 515 0
-514 -515 25 0
-516 -25 517 0
-516 -517 25 0
-518 -25 519 0
-518 -519 25 0
-52 -25 53 0
-52 -53 25 0
-520 -25 521 0
-520 -521 25 0
-522 -25 523 0
-522 -523 25 0
-524 -25 525 0
-524 -525 25 0
-526 -25 527 0
-526 -527 25 0
-528 -25 529 0
-528 -529 25 0
-530 -25 531 0
-530 -531 25 0
-532 -57 533 0
-532 57 534 0
-533 -60 534 0
-533 60 581 0
-534 535 0
-534 579 0
-535 536 0
-535 577 0
-536 537 0
-536 575 0
-537 538 0
-537 573 0
-538 539 0
-538 571 0
-539 540 0
-539 569 0
-54 -25 55 0
-54 -55 25 0
-540 541 0
-540 567 0
-541 542 0
-541 565 0
-542 543 0
-542 563 0
-543 544 0
-543 561 0
-544 545 0
-544 559 0
-545 546 0
-545 557 0
-546 547 0
-546 555 0
-547 548 0
-547 553 0
-548 549 0
-548 551 0
-549 -501 550 0
-549 -550 501 0
-551 -503 552 0
-551 -552 503 0
-553 -505 554 0
-553 -554 505 0
-555 -507 556 0
-555 -556 507 0
-557 -509 558 0
-557 -558 509 0
-559 -511 560 0
-559 -560 511 0
-56 -57 59 0
-56 57 81 0
-561 -513 562 0
-561 -562 513 0
-563 -515 564 0
-563 -564 515 0
-565 -517 566 0
-565 -566 517 0
-567 -519 568 0
-567 -568 519 0
-569 -521 570 0
-569 -570 521 0
-57 -58 7 0
-57 -7 58 0
-571 -523 572 0
-571 -572 523 0
-573 -525 574 0
-573 -574 525 0
-575 -527 576 0
-575 -576 527 0
-577 -529 578 0
-577 -578 529 0
-579 -531 580 0
-579 -580 531 0
-581 -129 534 0
-581 129 582 0
-582 -150 534 0
-582 150 583 0
-583 -153 534 0
-583 153 584 0
-584 -156 534 0
-584 156 585 0
-585 -159 534 0
-585 159 586 0
-586 -311 534 0
-586 311 587 0
-587 -314 588 0
-587 314 534 0
-588 589 0
-588 618 0
-589 590 0
-589 617 0
-59 -60 81 0
-59 60 128 0
-590 591 0
-590 616 0
-591 592 0
-591 615 0
-592 593 0
-592 614 0
-593 594 0
-593 613 0
-594 595 0
-594 612 0
-595 596 0
-595 611 0
-596 597 0
-596 610 0
-597 598 0
-597 609 0
-598 599 0
-598 608 0
-599 600 0
-599 607 0
-60 61 0
-60 63 0
-600 601 0
-600 606 0
-601 602 0
-601 605 0
-602 603 0
-602 604 0
-603 -177 501 0
-603 -501 177 0
-604 -179 503 0
-604 -503 179 0
-605 -181 505 0
-605 -505 181 0
-606 -183 507 0
-606 -507 183 0
-607 -185 509 0
-607 -509 185 0
-608 -187 511 0
-608 -511 187 0
-609 -189 513 0
-609 -513 189 0
-61 -62 7 0
-61 -7 62 0
-610 -191 515 0
-610 -515 191 0
-611 -193 517 0
-611 -517 193 0
-612 -195 519 0
-612 -519 195 0
-613 -197 521 0
-613 -521 197 0
-614 -199 523 0
-614 -523 199 0
-615 -201 525 0
-615 -525 201 0
-616 -203 527 0
-616 -527 203 0
-617 -205 529 0
-617 -529 205 0
-618 -207 531 0
-618 -531 207 0
-63 64 0
-63 80 0
-64 65 0
-64 80 0
-65 66 0
-65 80 0
-66 67 0
-66 80 0
-67 68 0
-67 80 0
-68 69 0
-68 80 0
-69 70 0
-69 80 0
-70 71 0
-70 80 0
-71 72 0
-71 80 0
-72 73 0
-72 80 0
-73 74 0
-73 80 0
-74 75 0
-74 80 0
-75 76 0
-75 80 0
-76 77 0
-76 80 0
-77 78 0
-77 80 0
-78 -25 79 0
-78 -79 25 0
-8 54 0
-8 9 0
-80 -25 25 0
-81 126 0
-81 82 0
-82 124 0
-82 83 0
-83 122 0
-83 84 0
-84 120 0
-84 85 0
-85 118 0
-85 86 0
-86 116 0
-86 87 0
-87 114 0
-87 88 0
-88 112 0
-88 89 0
-89 110 0
-89 90 0
-9 10 0
-9 52 0
-90 108 0
-90 91 0
-91 106 0
-91 92 0
-92 104 0
-92 93 0
-93 102 0
-93 94 0
-94 100 0
-94 95 0
-95 96 0
-95 98 0
-96 -24 97 0
-96 -97 24 0
-98 -27 99 0
-98 -99 27 0
1 -2 -484 0
1 0
10 -11 -50 0
100 -29 -101 0
100 29 101 0
102 -31 -103 0
102 31 103 0
104 -33 -105 0
104 33 105 0
106 -35 -107 0
106 35 107 0
108 -37 -109 0
108 37 109 0
11 -12 -48 0
110 -39 -111 0
110 39 111 0
112 -41 -113 0
112 41 113 0
114 -43 -115 0
114 43 115 0
116 -45 -117 0
116 45 117 0
118 -47 -119 0
118 47 119 0
12 -13 -46 0
120 -49 -121 0
120 49 121 0
122 -51 -123 0
122 51 123 0
124 -53 -125 0
124 53 125 0
126 -55 -127 0
126 55 127 0
128 -129 -81 0
128 -81 -149 0
128 129 -149 0
129 -130 -132 0
13 -14 -44 0
130 -131 -7 0
130 131 7 0
132 -133 -80 0
133 -134 -80 0
134 -135 -80 0
135 -136 -80 0
136 -137 -80 0
137 -138 -80 0
138 -139 -80 0
139 -140 -80 0
14 -15 -42 0
140 -141 -80 0
141 -142 -80 0
142 -143 -80 0
143 -144 -80 0
144 -145 -80 0
145 -146 -80 0
146 -147 -80 0
147 -148 -25 0
147 148 25 0
149 -150 -81 0
149 -81 -152 0
149 150 -152 0
15 -16 -40 0
150 -151 -7 0
150 151 7 0
152 -153 -81 0
152 -81 -155 0
152 153 -155 0
153 -154 -7 0
153 154 7 0
155 -156 -81 0
155 -81 -158 0
155 156 -158 0
156 -157 -7 0
156 157 7 0
158 -159 -161 0
158 -161 -81 0
158 159 -81 0
159 -160 -7 0
159 160 7 0
16 -17 -38 0
161 -162 -206 0
162 -163 -204 0
163 -164 -202 0
164 -165 -200 0
165 -166 -198 0
166 -167 -196 0
167 -168 -194 0
168 -169 -192 0
169 -170 -190 0
17 -18 -36 0
170 -171 -188 0
171 -172 -186 0
172 -173 -184 0
173 -174 -182 0
174 -175 -180 0
175 -176 -178 0
176 -24 -177 0
176 24 177 0
178 -27 -179 0
178 27 179 0
18 -19 -34 0
180 -29 -181 0
180 29 181 0
182 -31 -183 0
182 31 183 0
184 -33 -185 0
184 33 185 0
186 -35 -187 0
186 35 187 0
188 -37 -189 0
188 37 189 0
19 -20 -32 0
190 -39 -191 0
190 39 191 0
192 -41 -193 0
192 41 193 0
194 -43 -195 0
194 43 195 0
196 -45 -197 0
196 45 197 0
198 -47 -199 0
198 47 199 0
2 -3 -350 0
20 -21 -30 0
200 -49 -201 0
200 49 201 0
202 -51 -203 0
202 51 203 0
204 -53 -205 0
204 53 205 0
206 -55 -207 0
206 55 207 0
208 -209 -256 0
208 -5 -209 0
208 5 -256 0
209 -210 -254 0
21 -22 -28 0
210 -211 -252 0
211 -212 -250 0
212 -213 -248 0
213 -214 -246 0
214 -215 -244 0
215 -216 -242 0
216 -217 -240 0
217 -218 -238 0
218 -219 -236 0
219 -220 -234 0
22 -23 -26 0
220 -221 -232 0
221 -222 -230 0
222 -223 -228 0
223 -224 -226 0
224 -225 -25 0
224 225 25 0
226 -227 -25 0
226 227 25 0
228 -229 -25 0
228 229 25 0
23 -24 -25 0
23 24 25 0
230 -231 -25 0
230 231 25 0
232 -233 -25 0
232 233 25 0
234 -235 -25 0
234 235 25 0
236 -237 -25 0
236 237 25 0
238 -239 -25 0
238 239 25 0
240 -241 -25 0
240 241 25 0
242 -243 -25 0
242 243 25 0
244 -245 -25 0
244 245 25 0
246 -247 -25 0
246 247 25 0
248 -249 -25 0
248 249 25 0
250 -251 -25 0
250 251 25 0
252 -253 -25 0
252 253 25 0
254 -255 -25 0
254 255 25 0
256 -257 -258 0
256 -57 -257 0
256 57 -258 0
257 -258 -305 0
257 -60 -258 0
257 60 -305 0
258 -259 -303 0
259 -260 -301 0
26 -27 -25 0
26 27 25 0
260 -261 -299 0
261 -262 -297 0
262 -263 -295 0
263 -264 -293 0
264 -265 -291 0
265 -266 -289 0
266 -267 -287 0
267 -268 -285 0
268 -269 -283 0
269 -270 -281 0
270 -271 -279 0
271 -272 -277 0
272 -273 -275 0
273 -225 -274 0
273 225 274 0
275 -227 -276 0
275 227 276 0
277 -229 -278 0
277 229 278 0
279 -231 -280 0
279 231 280 0
28 -29 -25 0
28 29 25 0
281 -233 -282 0
281 233 282 0
283 -235 -284 0
283 235 284 0
285 -237 -286 0
285 237 286 0
287 -239 -288 0
287 239 288 0
289 -241 -290 0
289 241 290 0
291 -243 -292 0
291 243 292 0
293 -245 -294 0
293 245 294 0
295 -247 -296 0
295 247 296 0
297 -249 -298 0
297 249 298 0
299 -251 -300 0
299 251 300 0
3 -4 -208 0
30 -31 -25 0
30 31 25 0
301 -253 -302 0
301 253 302 0
303 -255 -304 0
303 255 304 0
305 -129 -258 0
305 -258 -306 0
305 129 -306 0
306 -150 -258 0
306 -258 -307 0
306 150 -307 0
307 -153 -258 0
307 -258 -308 0
307 153 -308 0
308 -156 -258 0
308 -258 -309 0
308 156 -309 0
309 -159 -258 0
309 -258 -310 0
309 159 -310 0
310 -258 -313 0
310 -311 -258 0
310 311 -313 0
311 -312 -7 0
311 312 7 0
313 -258 -316 0
313 -314 -258 0
313 314 -316 0
314 -315 -7 0
314 315 7 0
316 -317 -319 0
316 -319 -258 0
316 317 -258 0
317 -318 -7 0
317 318 7 0
319 -320 -349 0
32 -33 -25 0
32 33 25 0
320 -321 -348 0
321 -322 -347 0
322 -323 -346 0
323 -324 -345 0
324 -325 -344 0
325 -326 -343 0
326 -327 -342 0
327 -328 -341 0
328 -329 -340 0
329 -330 -339 0
330 -331 -338 0
331 -332 -337 0
332 -333 -336 0
333 -334 -335 0
334 -225 -177 0
334 225 177 0
335 -227 -179 0
335 227 179 0
336 -229 -181 0
336 229 181 0
337 -231 -183 0
337 231 183 0
338 -233 -185 0
338 233 185 0
339 -235 -187 0
339 235 187 0
34 -35 -25 0
34 35 25 0
340 -237 -189 0
340 237 189 0
341 -239 -191 0
341 239 191 0
342 -241 -193 0
342 241 193 0
343 -243 -195 0
343 243 195 0
344 -245 -197 0
344 245 197 0
345 -247 -199 0
345 247 199 0
346 -249 -201 0
346 249 201 0
347 -251 -203 0
347 251 203 0
348 -253 -205 0
348 253 205 0
349 -255 -207 0
349 255 207 0
350 -351 -398 0
350 -5 -351 0
350 5 -398 0
351 -352 -396 0
352 -353 -394 0
353 -354 -392 0
354 -355 -390 0
355 -356 -388 0
356 -357 -386 0
357 -358 -384 0
358 -359 -382 0
359 -360 -380 0
36 -37 -25 0
36 37 25 0
360 -361 -378 0
361 -362 -376 0
362 -363 -374 0
363 -364 -372 0
364 -365 -370 0
365 -366 -368 0
366 -367 -25 0
366 367 25 0
368 -369 -25 0
368 369 25 0
370 -371 -25 0
370 371 25 0
372 -373 -25 0
372 373 25 0
374 -375 -25 0
374 375 25 0
376 -377 -25 0
376 377 25 0
378 -379 -25 0
378 379 25 0
38 -39 -25 0
38 39 25 0
380 -381 -25 0
380 381 25 0
382 -383 -25 0
382 383 25 0
384 -385 -25 0
384 385 25 0
386 -387 -25 0
386 387 25 0
388 -389 -25 0
388 389 25 0
390 -391 -25 0
390 391 25 0
392 -393 -25 0
392 393 25 0
394 -395 -25 0
394 395 25 0
396 -397 -25 0
396 397 25 0
398 -399 -400 0
398 -57 -399 0
398 57 -400 0
399 -400 -447 0
399 -60 -400 0
399 60 -447 0
4 -5 -8 0
4 -8 -56 0
4 5 -56 0
40 -41 -25 0
40 41 25 0
400 -401 -445 0
401 -402 -443 0
402 -403 -441 0
403 -404 -439 0
404 -405 -437 0
405 -406 -435 0
406 -407 -433 0
407 -408 -431 0
408 -409 -429 0
409 -410 -427 0
410 -411 -425 0
411 -412 -423 0
412 -413 -421 0
413 -414 -419 0
414 -415 -417 0
415 -367 -416 0
415 367 416 0
417 -369 -418 0
417 369 418 0
419 -371 -420 0
419 371 420 0
42 -43 -25 0
42 43 25 0
421 -373 -422 0
421 373 422 0
423 -375 -424 0
423 375 424 0
425 -377 -426 0
425 377 426 0
427 -379 -428 0
427 379 428 0
429 -381 -430 0
429 381 430 0
431 -383 -432 0
431 383 432 0
433 -385 -434 0
433 385 434 0
435 -387 -436 0
435 387 436 0
437 -389 -438 0
437 389 438 0
439 -391 -440 0
439 391 440 0
44 -45 -25 0
44 45 25 0
441 -393 -442 0
441 393 442 0
443 -395 -444 0
443 395 444 0
445 -397 -446 0
445 397 446 0
447 -129 -400 0
447 -400 -448 0
447 129 -448 0
448 -150 -400 0
448 -400 -449 0
448 150 -449 0
449 -153 -400 0
449 -400 -450 0
449 153 -450 0
450 -156 -400 0
450 -400 -451 0
450 156 -451 0
451 -159 -400 0
451 -400 -452 0
451 159 -452 0
452 -311 -453 0
452 -453 -400 0
452 311 -400 0
453 -454 -483 0
454 -455 -482 0
455 -456 -481 0
456 -457 -480 0
457 -458 -479 0
458 -459 -478 0
459 -460 -477 0
46 -47 -25 0
46 47 25 0
460 -461 -476 0
461 -462 -475 0
462 -463 -474 0
463 -464 -473 0
464 -465 -472 0
465 -466 -471 0
466 -467 -470 0
467 -468 -469 0
468 -367 -177 0
468 367 177 0
469 -369 -179 0
469 369 179 0
470 -371 -181 0
470 371 181 0
471 -373 -183 0
471 373 183 0
472 -375 -185 0
472 375 185 0
473 -377 -187 0
473 377 187 0
474 -379 -189 0
474 379 189 0
475 -381 -191 0
475 381 191 0
476 -383 -193 0
476 383 193 0
477 -385 -195 0
477 385 195 0
478 -387 -197 0
478 387 197 0
479 -389 -199 0
479 389 199 0
48 -49 -25 0
48 49 25 0
480 -391 -201 0
480 391 201 0
481 -393 -203 0
481 393 203 0
482 -395 -205 0
482 395 205 0
483 -397 -207 0
483 397 207 0
484 -485 -532 0
484 -5 -485 0
484 5 -532 0
485 -486 -530 0
486 -487 -528 0
487 -488 -526 0
488 -489 -524 0
489 -490 -522 0
490 -491 -520 0
491 -492 -518 0
492 -493 -516 0
493 -494 -514 0
494 -495 -512 0
495 -496 -510 0
496 -497 -508 0
497 -498 -506 0
498 -499 -504 0
499 -500 -502 0
5 -6 -7 0
5 6 7 0
50 -51 -25 0
50 51 25 0
500 -501 -25 0
500 501 25 0
502 -503 -25 0
502 503 25 0
504 -505 -25 0
504 505 25 0
506 -507 -25 0
506 507 25 0
508 -509 -25 0
508 509 25 0
510 -511 -25 0
510 511 25 0
512 -513 -25 0
512 513 25 0
514 -515 -25 0
514 515 25 0
516 -517 -25 0
516 517 25 0
518 -519 -25 0
518 519 25 0
52 -53 -25 0
52 53 25 0
520 -521 -25 0
520 521 25 0
522 -523 -25 0
522 523 25 0
524 -525 -25 0
524 525 25 0
526 -527 -25 0
526 527 25 0
528 -529 -25 0
528 529 25 0
530 -531 -25 0
530 531 25 0
532 -533 -534 0
532 -57 -533 0
532 57 -534 0
533 -534 -581 0
533 -60 -534 0
533 60 -581 0
534 -535 -579 0
535 -536 -577 0
536 -537 -575 0
537 -538 -573 0
538 -539 -571 0
539 -540 -569 0
54 -55 -25 0
54 55 25 0
540 -541 -567 0
541 -542 -565 0
542 -543 -563 0
543 -544 -561 0
544 -545 -559 0
545 -546 -557 0
546 -547 -555 0
547 -548 -553 0
548 -549 -551 0
549 -501 -550 0
549 501 550 0
551 -503 -552 0
551 503 552 0
553 -505 -554 0
553 505 554 0
555 -507 -556 0
555 507 556 0
557 -509 -558 0
557 509 558 0
559 -511 -560 0
559 511 560 0
56 -57 -59 0
56 -59 -81 0
56 57 -81 0
561 -513 -562 0
561 513 562 0
563 -515 -564 0
563 515 564 0
565 -517 -566 0
565 517 566 0
567 -519 -568 0
567 519 568 0
569 -521 -570 0
569 521 570 0
57 -58 -7 0
57 58 7 0
571 -523 -572 0
571 523 572 0
573 -525 -574 0
573 525 574 0
575 -527 -576 0
575 527 576 0
577 -529 -578 0
577 529 578 0
579 -531 -580 0
579 531 580 0
581 -129 -534 0
581 -534 -582 0
581 129 -582 0
582 -150 -534 0
582 -534 -583 0
582 150 -583 0
583 -153 -534 0
583 -534 -584 0
583 153 -584 0
584 -156 -534 0
584 -534 -585 0
584 156 -585 0
585 -159 -534 0
585 -534 -586 0
585 159 -586 0
586 -311 -534 0
586 -534 -587 0
586 311 -587 0
587 -314 -588 0
587 -588 -534 0
587 314 -534 0
588 -589 -618 0
589 -590 -617 0
59 -60 -81 0
59 -81 -128 0
59 60 -128 0
590 -591 -616 0
591 -592 -615 0
592 -593 -614 0
593 -594 -613 0
594 -595 -612 0
595 -596 -611 0
596 -597 -610 0
597 -598 -609 0
598 -599 -608 0
599 -600 -607 0
60 -61 -63 0
600 -601 -606 0
601 -602 -605 0
602 -603 -604 0
603 -501 -177 0
603 501 177 0
604 -503 -179 0
604 503 179 0
605 -505 -181 0
605 505 181 0
606 -507 -183 0
606 507 183 0
607 -509 -185 0
607 509 185 0
608 -511 -187 0
608 511 187 0
609 -513 -189 0
609 513 189 0
61 -62 -7 0
61 62 7 0
610 -515 -191 0
610 515 191 0
611 -517 -193 0
611 517 193 0
612 -519 -195 0
612 519 195 0
613 -521 -197 0
613 521 197 0
614 -523 -199 0
614 523 199 0
615 -525 -201 0
615 525 201 0
616 -527 -203 0
616 527 203 0
617 -529 -205 0
617 529 205 0
618 -531 -207 0
618 531 207 0
63 -64 -80 0
64 -65 -80 0
65 -66 -80 0
66 -67 -80 0
67 -68 -80 0
68 -69 -80 0
69 -70 -80 0
7 0
70 -71 -80 0
71 -72 -80 0
72 -73 -80 0
73 -74 -80 0
74 -75 -80 0
75 -76 -80 0
76 -77 -80 0
77 -78 -80 0
78 -79 -25 0
78 79 25 0
8 -9 -54 0
80 -25 -25 0
80 25 25 0
81 -82 -126 0
82 -83 -124 0
83 -84 -122 0
84 -85 -120 0
85 -86 -118 0
86 -87 -116 0
87 -88 -114 0
88 -89 -112 0
89 -90 -110 0
9 -10 -52 0
90 -91 -108 0
91 -92 -106 0
92 -93 -104 0
93 -94 -102 0
94 -95 -100 0
95 -96 -98 0
96 -24 -97 0
96 24 97 0
98 -27 -99 0
98 27 99 0
